 200 16 
 8 80 64 55 21 75 78 89 24 60 94 43 
 56 37 10 37 
 16 
 1 2 3 4 5 6 7 8 9 10 11 12 
 13 14 15 16 
 8 
 5 6 7 8 9 11 12 14 
 10 
 1 2 5 7 8 11 12 13 14 16 
 16 
 1 2 3 4 5 6 7 8 9 10 11 12 
 13 14 15 16 
 5 
 1 2 7 8 16 
 3 
 5 9 16 
 10 
 2 3 4 6 7 8 10 11 15 16 
 8 
 2 4 5 8 9 12 13 14 
 7 
 2 5 6 8 11 12 15 
 3 
 2 4 5 
 13 
 1 3 4 5 6 7 9 11 12 13 14 15 
 16 
 11 
 2 3 4 6 7 8 9 11 13 14 16 
 16 
 1 2 3 4 5 6 7 8 9 10 11 12 
 13 14 15 16 
 16 
 1 2 3 4 5 6 7 8 9 10 11 12 
 13 14 15 16 
 14 
 1 2 3 4 5 7 9 10 11 12 13 14 
 15 16 
 12 
 1 2 3 5 6 7 8 10 11 12 14 15 
 6 
 2 3 7 11 13 15 
 10 
 2 4 6 8 9 10 12 13 14 15 
 2 
 6 11 
 3 
 3 4 9 
 13 
 1 2 3 4 6 7 8 9 10 11 12 13 
 14 
 7 
 1 2 4 8 12 15 16 
 12 
 2 3 4 5 6 7 8 9 12 13 14 15 
 12 
 2 3 4 5 6 9 10 11 12 13 15 16 
 11 
 1 3 4 5 7 8 10 12 13 14 16 
 11 
 1 2 4 5 7 9 11 12 13 15 16 
 2 
 4 8 
 16 
 1 2 3 4 5 6 7 8 9 10 11 12 
 13 14 15 16 
 3 
 3 5 13 
 13 
 1 3 4 5 6 7 8 9 10 11 13 14 
 15 
 12 
 2 3 4 5 7 8 9 11 13 14 15 16 
 5 
 1 6 11 13 14 
 9 
 1 4 5 6 9 12 13 14 16 
 15 
 2 3 4 5 6 7 8 9 10 11 12 13 
 14 15 16 
 12 
 1 3 4 5 6 7 9 10 12 13 15 16 
 11 
 2 3 4 7 8 9 10 11 13 15 16 
 5 
 3 10 13 15 16 
 10 
 1 3 4 5 6 7 9 10 11 13 
 12 
 1 4 5 6 7 8 9 12 13 14 15 16 
 13 
 1 2 3 4 5 7 8 9 11 13 14 15 
 16 
 6 
 2 3 4 7 12 16 
 5 
 4 6 9 11 16 
 12 
 1 2 3 4 5 6 7 9 12 13 15 16 
 10 
 1 2 3 5 7 9 11 12 13 14 
 7 
 3 4 8 9 10 12 13 
 16 
 1 2 3 4 5 6 7 8 9 10 11 12 
 13 14 15 16 
 13 
 1 2 4 5 6 7 9 11 12 13 14 15 
 16 
 4 
 2 3 12 15 
 8 
 3 5 7 9 11 12 13 16 
 11 
 1 2 5 6 8 9 10 13 14 15 16 
 16 
 1 2 3 4 5 6 7 8 9 10 11 12 
 13 14 15 16 
 9 
 1 4 5 10 11 12 13 15 16 
 8 
 2 3 4 7 8 10 12 16 
 5 
 1 3 6 9 16 
 11 
 1 2 3 4 5 6 7 10 11 12 14 
 2 
 12 14 
 4 
 2 3 10 14 
 9 
 1 2 3 6 7 10 11 14 16 
 7 
 1 5 7 11 12 15 16 
 12 
 1 3 5 7 8 9 10 11 12 13 14 16 
 7 
 2 3 4 5 10 13 16 
 4 
 1 5 13 15 
 6 
 2 3 9 14 15 16 
 11 
 1 2 3 4 5 6 7 9 11 13 14 
 12 
 1 2 3 5 6 7 8 10 11 12 13 15 
 8 
 1 4 5 6 7 13 14 16 
 13 
 1 2 3 4 5 6 7 8 10 11 12 14 
 16 
 9 
 1 5 7 9 11 12 13 14 15 
 7 
 4 5 8 9 11 15 16 
 11 
 1 3 4 5 6 7 8 9 11 12 15 
 6 
 2 4 5 6 12 13 
 3 
 2 9 11 
 10 
 1 3 4 5 9 11 12 13 15 16 
 9 
 1 3 4 6 7 8 9 11 12 
 11 
 2 3 4 7 8 9 10 12 13 14 16 
 14 
 1 2 4 5 6 7 8 9 10 11 12 14 
 15 16 
 4 
 8 9 11 15 
 11 
 3 4 5 6 7 8 9 11 12 14 15 
 11 
 2 3 4 5 6 7 8 10 13 14 16 
 9 
 3 4 6 8 9 10 11 12 13 
 12 
 1 2 3 4 5 6 9 10 13 14 15 16 
 2 
 1 3 
 14 
 1 2 3 4 5 6 7 8 9 10 12 13 
 14 15 
 6 
 2 5 6 9 12 16 
 13 
 1 2 3 4 5 6 8 9 11 12 13 14 
 16 
 2 
 7 14 
 4 
 1 6 13 16 
 14 
 1 2 4 5 6 7 9 10 11 12 13 14 
 15 16 
 8 
 2 3 4 6 10 12 15 16 
 3 
 1 2 7 
 14 
 1 2 3 4 5 6 7 8 10 11 12 13 
 15 16 
 14 
 1 2 4 5 6 7 8 9 10 11 12 13 
 15 16 
 6 
 4 6 8 10 11 14 
 10 
 1 2 3 4 5 7 8 9 15 16 
 16 
 1 2 3 4 5 6 7 8 9 10 11 12 
 13 14 15 16 
 3 
 8 11 13 
 11 
 1 2 3 4 6 7 8 9 11 13 14 
 4 
 2 3 6 14 
 14 
 1 2 4 5 6 7 8 9 11 12 13 14 
 15 16 
 10 
 1 2 3 6 7 9 12 13 14 15 
 15 
 1 2 3 4 5 6 7 8 9 10 11 12 
 14 15 16 
 3 
 4 7 10 
 7 
 2 3 4 8 10 11 12 
 5 
 7 8 9 12 14 
 8 
 3 4 5 6 8 9 11 16 
 2 
 6 16 
 4 
 1 4 12 16 
 14 
 1 2 3 4 5 6 7 8 10 11 12 13 
 15 16 
 8 
 2 6 8 9 11 12 14 16 
 16 
 1 2 3 4 5 6 7 8 9 10 11 12 
 13 14 15 16 
 2 
 5 16 
 16 
 1 2 3 4 5 6 7 8 9 10 11 12 
 13 14 15 16 
 4 
 7 8 9 12 
 3 
 6 9 10 
 9 
 2 6 7 10 11 12 13 15 16 
 11 
 3 4 6 7 8 10 11 12 13 14 16 
 6 
 2 3 6 9 12 16 
 12 
 1 2 4 5 6 7 8 9 11 12 13 15 
 13 
 1 2 3 5 6 7 8 10 11 13 14 15 
 16 
 7 
 3 4 6 7 8 9 14 
 4 
 2 5 11 15 
 16 
 1 2 3 4 5 6 7 8 9 10 11 12 
 13 14 15 16 
 7 
 3 4 5 9 12 13 15 
 16 
 1 2 3 4 5 6 7 8 9 10 11 12 
 13 14 15 16 
 10 
 1 2 3 6 7 9 10 11 13 15 
 9 
 3 4 5 7 8 9 10 12 16 
 4 
 1 4 12 13 
 5 
 1 3 4 8 13 
 10 
 1 2 6 8 10 11 12 13 14 15 
 16 
 1 2 3 4 5 6 7 8 9 10 11 12 
 13 14 15 16 
 15 
 1 2 3 5 6 7 8 9 10 11 12 13 
 14 15 16 
 2 
 12 13 
 6 
 1 2 4 7 10 13 
 6 
 1 4 5 9 11 12 
 12 
 1 3 4 5 6 8 9 10 11 14 15 16 
 3 
 9 11 15 
 11 
 1 2 4 5 9 10 11 12 13 14 15 
 5 
 1 3 7 12 15 
 13 
 1 2 4 6 7 8 9 10 12 13 14 15 
 16 
 14 
 1 2 3 4 6 7 8 9 11 12 13 14 
 15 16 
 13 
 1 3 5 6 7 8 10 11 12 13 14 15 
 16 
 4 
 4 6 9 13 
 12 
 1 2 3 4 6 8 9 12 13 14 15 16 
 3 
 2 3 13 
 14 
 1 2 3 5 6 7 8 9 10 11 12 14 
 15 16 
 6 
 4 5 7 9 10 12 
 13 
 1 2 3 4 5 6 7 8 9 11 12 13 
 14 
 7 
 2 8 9 10 11 13 14 
 15 
 1 2 3 5 6 7 8 9 10 11 12 13 
 14 15 16 
 8 
 1 2 7 9 10 11 12 15 
 15 
 1 2 3 4 5 6 7 8 9 10 11 12 
 13 14 16 
 10 
 1 2 3 4 5 8 10 11 13 16 
 11 
 1 3 4 6 8 9 10 11 12 13 16 
 16 
 1 2 3 4 5 6 7 8 9 10 11 12 
 13 14 15 16 
 16 
 1 2 3 4 5 6 7 8 9 10 11 12 
 13 14 15 16 
 5 
 2 4 5 6 13 
 3 
 12 13 14 
 6 
 2 4 8 12 14 15 
 11 
 1 2 3 5 8 9 10 12 13 14 16 
 16 
 1 2 3 4 5 6 7 8 9 10 11 12 
 13 14 15 16 
 6 
 2 3 8 10 12 13 
 14 
 1 2 3 4 5 6 8 9 10 11 12 14 
 15 16 
 16 
 1 2 3 4 5 6 7 8 9 10 11 12 
 13 14 15 16 
 7 
 2 3 8 9 12 15 16 
 14 
 1 2 3 4 5 6 8 9 10 11 12 13 
 15 16 
 5 
 1 6 10 11 14 
 14 
 1 2 3 4 5 6 7 8 10 11 12 14 
 15 16 
 13 
 2 4 5 6 7 8 10 11 12 13 14 15 
 16 
 9 
 1 2 4 5 6 8 13 14 16 
 3 
 6 7 14 
 6 
 1 4 6 12 14 16 
 7 
 3 4 7 9 10 11 14 
 16 
 1 2 3 4 5 6 7 8 9 10 11 12 
 13 14 15 16 
 16 
 1 2 3 4 5 6 7 8 9 10 11 12 
 13 14 15 16 
 2 
 8 9 
 16 
 1 2 3 4 5 6 7 8 9 10 11 12 
 13 14 15 16 
 6 
 1 2 3 7 10 11 
 14 
 1 2 3 4 5 7 8 9 10 11 12 13 
 15 16 
 11 
 2 3 4 5 6 9 10 11 12 13 14 
 10 
 3 4 5 6 7 9 12 14 15 16 
 3 
 1 8 16 
 13 
 1 2 3 4 5 6 8 9 10 11 12 14 
 16 
 8 
 1 2 3 4 5 6 7 12 
 12 
 1 2 4 5 6 8 9 11 12 13 14 15 
 3 
 2 12 16 
 4 
 2 7 8 10 
 12 
 1 3 4 5 6 7 11 12 13 14 15 16 
 12 
 1 3 4 5 6 7 8 9 10 11 12 15 
 8 
 3 5 6 8 9 10 11 12 
 10 
 1 2 3 5 6 7 9 11 13 14 
 10 
 1 2 3 4 6 8 11 12 13 16 
 8 
 2 4 7 8 9 10 15 16 
 4 
 2 7 8 14 
 4 
 2 7 9 16 
 16 
 1 2 3 4 5 6 7 8 9 10 11 12 
 13 14 15 16 
 3 
 3 6 9 
 15 
 1 2 3 4 5 6 8 9 10 11 12 13 
 14 15 16 
 16 
 1 2 3 4 5 6 7 8 9 10 11 12 
 13 14 15 16 
 7 
 6 7 8 11 12 13 16 
 3 
 1 4 13 
 